100	100	0
101	101	0
102	102	9
103	103	0
104	104	0
105	105	0
106	106	0
107	107	0
108	108	0
109	109	0
110	110	0
111	111	0
112	112	0
113	113	0
114	114	0
115	115	9
116	116	0
117	117	0
118	118	0
119	119	0
120	120	0
121	121	0
122	122	10
123	123	0
124	124	0
125	125	1
126	126	0
127	127	8
128	128	7
129	129	0
130	130	0
131	131	1
132	132	0
133	133	0
134	134	0
135	135	0
136	136	0
137	137	0
138	138	0
139	139	1
140	140	0
141	141	0
142	142	2
143	143	0
144	144	0
145	145	0
146	146	0
147	147	1
148	148	0
149	149	0
150	150	10
151	151	0
152	152	0
153	153	0
154	154	1
155	155	0
156	156	1
157	157	1
158	158	0
159	159	1
160	160	0
161	161	0
162	162	0
163	163	4
164	164	0
165	165	1
166	166	0
167	167	13
168	168	0
169	169	1
170	170	0
171	171	11
172	172	0
173	173	0
174	174	1
175	175	1
176	176	6
177	177	1
178	178	0
179	179	1
180	180	2
181	181	1
182	182	0
183	183	0
184	184	2
185	185	1
186	186	2
187	187	27
188	188	1
189	189	21
190	190	1
191	191	0
192	192	2
193	193	51
194	194	2
195	195	1
196	196	76
197	197	1
198	198	1
199	199	1
200	200	1
201	201	37
202	202	51
203	203	1
204	204	1
205	205	13
206	206	1
207	207	27
208	208	0
209	209	0
210	210	1
211	211	0
212	212	24
213	213	46
214	214	21
215	215	1
216	216	42
217	217	1
218	218	1
219	219	1
220	220	17
221	221	1
222	222	50
223	223	1
224	224	44
225	225	1
226	226	1
227	227	1
228	228	1
229	229	1
230	230	1
231	231	1
232	232	2
233	233	1
234	234	1
235	235	1
236	236	7
237	237	2
238	238	1
239	239	1
240	240	4
241	241	1
242	242	1
243	243	1
244	244	2
245	245	1
246	246	1
247	247	1
248	248	2
249	249	1
250	250	9
251	251	1
252	252	1
253	253	1
254	254	1
255	255	1
256	256	1
257	257	1
258	258	1
259	259	1
260	260	2
261	261	2
262	262	2
263	263	1
264	264	5
265	265	1
266	266	1
267	267	37
268	268	1
269	269	1
270	270	4
271	271	23
272	272	2
273	273	4
274	274	3
275	275	1
276	276	4
277	277	1
278	278	1
279	279	2
280	280	1
281	281	3
282	282	1
283	283	31
284	284	2
285	285	1
286	286	63
287	287	3
288	288	2
289	289	2
290	290	2
291	291	3
292	292	3
293	293	2
294	294	2
295	295	2
296	296	1
297	297	1
298	298	2
299	299	1
300	300	1
301	301	3
302	302	3
303	303	1
304	304	2
305	305	2
306	306	2
307	307	4
308	308	1
309	309	4
310	310	1
311	311	2
312	312	12
313	313	1
314	314	2
315	315	2
316	316	44
317	317	1
318	318	2
319	319	2
320	320	1
321	321	1
322	322	4
323	323	1
324	324	2
325	325	46
326	326	36
327	327	3
328	328	2
329	329	1
330	330	5
331	331	2
332	332	2
333	333	48
334	334	3
335	335	68
336	336	1
337	337	5
338	338	2
339	339	5
340	340	1
341	341	1
342	342	1
343	343	3
344	344	2
345	345	2
346	346	1
347	347	3
348	348	3
349	349	51
350	350	1
351	351	70
352	352	1
353	353	2
354	354	2
355	355	2
356	356	2
357	357	2
358	358	1
359	359	2
360	360	20
361	361	2
362	362	1
363	363	1
364	364	59
365	365	2
366	366	8
367	367	2
368	368	2
369	369	1
370	370	2
371	371	1
372	372	1
373	373	2
374	374	5
375	375	2
376	376	2
377	377	1
378	378	39
379	379	1
380	380	2
381	381	2
382	382	2
383	383	4
384	384	2
385	385	2
386	386	77
387	387	1
388	388	42
389	389	2
390	390	1
391	391	1
392	392	2
393	393	2
394	394	1
395	395	24
396	396	1
397	397	31
398	398	4
399	399	3
400	400	1
401	401	2
402	402	2
403	403	2
404	404	2
405	405	1
406	406	2
407	407	2
408	408	1
409	409	1
410	410	2
411	411	2
412	412	1
413	413	1
414	414	7
415	415	2
416	416	2
417	417	43
418	418	1
419	419	2
420	420	2
421	421	2
422	422	2
423	423	4
424	424	6
425	425	38
426	426	2
427	427	96
428	428	2
429	429	3
430	430	1
431	431	2
432	432	2
433	433	3
434	434	54
435	435	1
436	436	3
437	437	2
438	438	4
439	439	3
440	440	2
441	441	2
442	442	92
443	443	39
444	444	2
445	445	3
446	446	25
447	447	4
448	448	1
449	449	3
450	450	57
451	451	3
452	452	73
453	453	3
454	454	2
455	455	2
456	456	4
457	457	4
458	458	3
459	459	4
460	460	3
461	461	2
462	462	4
463	463	2
464	464	2
465	465	3
466	466	34
467	467	2
468	468	3
469	469	48
470	470	5
471	471	3
472	472	4
473	473	4
474	474	2
475	475	4
476	476	2
477	477	2
478	478	56
479	479	5
480	480	4
481	481	39
482	482	2
483	483	2
484	484	4
485	485	2
486	486	2
487	487	2
488	488	4
489	489	3
490	490	3
491	491	29
492	492	1
493	493	5
494	494	3
495	495	1
496	496	2
497	497	3
498	498	1
499	499	3
500	500	3
501	501	4
502	502	1
503	503	614
504	504	2
505	505	2
506	506	3
507	507	5
508	508	84
509	509	3
510	510	21
511	511	2
512	512	6
513	513	8
514	514	2
515	515	3
516	516	2
517	517	2
518	518	1
519	519	8
520	520	5
521	521	2
522	522	6
523	523	3
524	524	5
525	525	5
526	526	3
527	527	3
528	528	5
529	529	26
530	530	2
531	531	3
532	532	3
533	533	3
534	534	2
535	535	4
536	536	3
537	537	3
538	538	69
539	539	3
540	540	2
541	541	3
542	542	3
543	543	2
544	544	45
545	545	3
546	546	3
547	547	3
548	548	40
549	549	3
550	550	3
551	551	2
552	552	5
553	553	46
554	554	3
555	555	168
556	556	2
557	557	55
558	558	2
559	559	30
560	560	8
561	561	2
562	562	3
563	563	27
564	564	3
565	565	2
566	566	4
567	567	3
568	568	3
569	569	2
570	570	6
571	571	20
572	572	5
573	573	5
574	574	35
575	575	42
576	576	4
577	577	3
578	578	3
579	579	2
580	580	55
581	581	2
582	582	5
583	583	4
584	584	43
585	585	3
586	586	3
587	587	3
588	588	45
589	589	3
590	590	3
591	591	54
592	592	2
593	593	2
594	594	3
595	595	4
596	596	3
597	597	10
598	598	4
599	599	5
600	600	3
601	601	12
602	602	5
603	603	3
604	604	3
605	605	3
606	606	2
607	607	3
608	608	3
609	609	3
610	610	5
611	611	3
612	612	87
613	613	3
614	614	5
615	615	2
616	616	4
617	617	4
618	618	65
619	619	3
620	620	3
621	621	5
622	622	3
623	623	3
624	624	3
625	625	42
626	626	2
627	627	3
628	628	44
629	629	3
630	630	4
631	631	4
632	632	3
633	633	5
634	634	3
635	635	2
636	636	2
637	637	65
638	638	9
639	639	4
640	640	3
641	641	3
642	642	3
643	643	4
644	644	2
645	645	3
646	646	4
647	647	3
648	648	2
649	649	3
650	650	3
651	651	6
652	652	5
653	653	3
654	654	3
655	655	6
656	656	4
657	657	3
658	658	3
659	659	6
660	660	4
661	661	4
662	662	8
663	663	1220
664	664	3
665	665	2
666	666	8
667	667	2
668	668	5
669	669	43
670	670	4
671	671	3
672	672	3
673	673	5
674	674	2
675	675	3
676	676	4
677	677	3
678	678	3
679	679	3
680	680	2
681	681	4
682	682	20
683	683	3
684	684	4
685	685	4
686	686	6
687	687	3
688	688	8
689	689	2
690	690	7
691	691	3
692	692	3
693	693	2
694	694	34
695	695	2
696	696	3
697	697	38
698	698	4
699	699	6
700	700	6
701	701	9
702	702	3
703	703	24
704	704	5
705	705	3
706	706	4
707	707	6
708	708	7
709	709	6
710	710	3
711	711	2
712	712	5
713	713	4
714	714	6
715	715	39
716	716	2
717	717	6
718	718	2
719	719	4
720	720	4
721	721	4
722	722	4
723	723	3
724	724	3
725	725	5
726	726	3
727	727	3
728	728	4
729	729	36
730	730	4
731	731	48
732	732	5
733	733	5
734	734	3
735	735	51
736	736	2
737	737	6
738	738	3
739	739	4
740	740	5
741	741	7
742	742	6
743	743	6
744	744	7
745	745	5
746	746	4
747	747	4
748	748	5
749	749	6
750	750	3
751	751	3
752	752	6
753	753	3
754	754	4
755	755	36
756	756	3
757	757	4
758	758	3
759	759	78
760	760	4
761	761	4
762	762	2
763	763	2
764	764	4
765	765	6
766	766	4
767	767	5
768	768	13
769	769	5
770	770	4
771	771	5
772	772	8
773	773	4
774	774	48
775	775	3
776	776	8
777	777	7
778	778	6
779	779	3
780	780	4
781	781	27
782	782	4
783	783	3
784	784	45
785	785	4
786	786	7
787	787	3
788	788	3
789	789	4
790	790	2
791	791	6
792	792	2
793	793	5
794	794	6
795	795	7
796	796	4
797	797	4
798	798	40
799	799	2
800	800	4
801	801	3
802	802	43
803	803	3
804	804	4
805	805	3
806	806	2
807	807	5
808	808	27
809	809	6
810	810	4
811	811	4
812	812	4
813	813	3
814	814	4
815	815	56
816	816	4
817	817	8
818	818	9
819	819	5
820	820	6
821	821	41
822	822	51
823	823	3
824	824	4
825	825	3
826	826	6
827	827	2
828	828	7
829	829	5
830	830	49
831	831	10
832	832	5
833	833	4
834	834	3
835	835	4
836	836	4
837	837	3
838	838	8
839	839	5
840	840	4
841	841	11
842	842	6
843	843	3
844	844	4
845	845	3
846	846	4
847	847	4
848	848	4
849	849	8
850	850	4
851	851	9
852	852	4
853	853	5
854	854	5
855	855	35
856	856	4
857	857	9
858	858	4
859	859	4
860	860	9
861	861	34
862	862	3
863	863	3
864	864	4
865	865	7
866	866	5
867	867	24
868	868	4
869	869	7
870	870	7
871	871	4
872	872	5
873	873	59
874	874	35
875	875	5
876	876	5
877	877	6
878	878	35
879	879	5
880	880	5
881	881	29
882	882	5
883	883	48
884	884	5
885	885	34
886	886	9
887	887	5
888	888	5
889	889	54
890	890	6
891	891	49
892	892	7
893	893	10
894	894	47
895	895	6
896	896	44
897	897	8
898	898	7
899	899	6
900	900	6
901	901	6
902	902	6
903	903	101
904	904	6
905	905	48
906	906	56
907	907	6
908	908	7
909	909	6
910	910	5
911	911	6
912	912	4
913	913	6
914	914	6
915	915	6
916	916	18
917	917	5
918	918	8
919	919	6
920	920	6
921	921	4
922	922	6
923	923	4
924	924	4
925	925	49
926	926	40
927	927	7
928	928	7
929	929	9
930	930	6
931	931	67
932	932	5
933	933	5
934	934	63
935	935	7
936	936	7
937	937	6
938	938	73
939	939	6
940	940	6
941	941	8
942	942	4
943	943	6
944	944	5
945	945	6
946	946	6
947	947	7
948	948	10
949	949	7
950	950	48
951	951	6
952	952	8
953	953	6
954	954	6
955	955	6
956	956	6
957	957	6
958	958	4
959	959	74
960	960	55
961	961	6
962	962	5
963	963	4
964	964	7
965	965	10
966	966	6
967	967	6
968	968	6
969	969	26
970	970	5
971	971	6
972	972	8
973	973	6
974	974	60
975	975	7
976	976	6
977	977	8
978	978	7
979	979	6
980	980	12
981	981	6
982	982	7
983	983	6
984	984	6
985	985	5
986	986	14
987	987	6
988	988	16
989	989	27
990	990	8
991	991	74
992	992	6
993	993	58
994	994	7
995	995	6
996	996	7
997	997	9
998	998	50
999	999	6
1000	1000	13
